c turning on binary mode checking
c parsing input formula with 202048 variables and 780990 clauses
c finished parsing, read 2249738 bytes from proof file
c detected empty clause; start verification via backward checking
c 6881 of 780990 clauses in core                            
c 2015 of 90771 lemmas in core using 57481 resolution steps
c 0 RAT lemmas in core; 275 redundant literals in core lemmas
s VERIFIED
c verification time: 1.198 seconds
